WARNING: for repeatability, setting FPU to use double precision
============================[ Problem Statistics ]=============================
|                                                                             |
|  Number of variables:           100                                         |
|  Number of clauses:             449                                         |
|  Parse time:                   0.00 s                                       |
|  Simplification time:          0.00 s                                       |
|                                                                             |
============================[ Search Statistics ]==============================
| Conflicts |          ORIGINAL         |          LEARNT          | Progress |
|           |    Vars  Clauses Literals |    Limit  Clauses Lit/Cl |          |
===============================================================================
|       100 |     100      448     1343 |      164      100      7 |  0.010 % |
===============================================================================
restarts              : 2
conflicts             : 158            (76736 /sec)
decisions             : 210            (0.00 % random) (101991 /sec)
propagations          : 4172           (2026226 /sec)
conflict literals     : 1100           (14.66 % deleted)
Memory used           : 13.00 MB
CPU time              : 0.002059 s

SATISFIABLE
